n = 15;
m = 41;

max_len = 7;
word_lens = [ 5, 5, 5, 5, 5, 5, 5, 5, 5, 5, 5, 5, 6, 6, 6, 6, 6, 6, 6, 6, 6, 6, 6, 6, 6, 6, 6, 6, 6, 6, 6, 6, 7, 7, 7, 7, 7, 7, 7, 7, 7 ];
words = [| F, A, N, C, Y, E, E | S, T, Y, L, E, E, E | S, U, A, V, E, E, E | G, R, U, F, F, E, E | S, H, O, W, Y, E, E | M, A, C, H, O, E, E | M, O, G, U, L, E, E | S, P, A, I, N, E, E | B, R, O, W, N, E, E | F, I, E, R, Y, E, E | B, R, A, S, H, E, E | C, A, N, N, Y, E, E | F, L, A, S, H, Y, E | S, H, R, E, W, D, E | F, E, I, S, T, Y, E | U, R, B, A, N, E, E | D, A, P, P, E, R, E | B, O, Y, I, S, H, E | J, O, V, I, A, L, E | R, O, T, U, N, D, E | P, O, R, T, L, Y, E | R, A, K, I, S, H, E | F, R, A, N, C, E, E | A, N, T, I, C, S, E | T, Y, C, O, O, N, E | A, S, P, E, C, T, E | Q, U, I, R, K, Y, E | A, P, P, E, A, R, E | H, A, I, R, E, D, E | F, L, O, R, I, D, E | S, I, L, V, I, O, E | D, E, M, U, R, E, E | A, F, F, A, B, L, E | V, O, L, U, B, L, E | P, E, R, S, O, N, A | S, P, L, A, S, H, Y | D, E, L, O, N, I, X | B, I, Z, A, R, R, E | A, U, R, E, A, T, E | S, T, Y, L, I, S, H | E, N, G, L, A, N, D |];
